NAME : traveling-santa-2018-prime-paths.29148.tour
COMMENT : Length = 29148
COMMENT : Found by LKH [Keld Helsgaun] Sun Jun 12 19:59:20 2022
TYPE : TOUR
DIMENSION : 100
TOUR_SECTION
1
26
35
60
2
66
97
28
18
6
10
74
24
62
34
27
44
37
58
86
81
20
76
14
41
82
8
48
47
12
21
94
67
73
30
79
78
19
23
83
69
40
17
31
77
99
25
36
64
96
32
98
95
61
15
70
39
42
54
13
38
59
90
55
52
87
72
88
89
50
63
80
29
100
3
85
22
5
92
91
49
65
46
84
11
43
57
56
51
9
75
33
71
68
16
4
53
45
7
93
-1
EOF
